p cnf 40 113
a 24 34 0
e 1 2 3 4 5 6 7 8 9 10 11 12 13 14 15 16 17 18 19 20 21 22 23 25 26 27 28 29 30 31 32 33 35 36 37 38 39 40 0
3 1 0
3 -2 0
-1 2 -3 0
6 4 0
6 5 0
-4 -5 -6 0
-7 6 0
-7 -6 0
8 -3 0
8 -7 0
3 7 -8 0
12 4 0
12 -11 0
-4 11 -12 0
2 -12 -13 0
-2 12 -13 0
2 12 13 0
-2 -12 13 0
-10 13 -14 0
10 -13 -14 0
-10 -13 14 0
10 13 14 0
14 -15 -16 0
-14 15 -16 0
14 15 16 0
-14 -15 16 0
-9 -16 -17 0
9 16 -17 0
-9 16 17 0
9 -16 17 0
-18 15 0
-18 -1 0
-15 1 18 0
-19 17 0
-19 18 0
-17 -18 19 0
-20 8 0
-20 -19 0
-8 19 20 0
22 -21 0
22 9 0
21 -9 -22 0
7 13 -23 0
-7 -13 -23 0
7 -13 23 0
-7 13 23 0
-23 1 -24 0
23 -1 -24 0
-23 -1 24 0
23 1 24 0
-1 -9 -25 0
1 9 -25 0
-1 9 25 0
1 -9 25 0
-26 -24 0
-26 25 0
24 -25 26 0
27 22 0
27 -26 0
-22 26 -27 0
-20 27 -28 0
20 -27 -28 0
-20 -27 28 0
20 27 28 0
-29 2 0
-29 4 0
-2 -4 29 0
-30 9 0
-30 11 0
-9 -11 30 0
-13 30 -31 0
13 -30 -31 0
-13 -30 31 0
13 30 31 0
32 29 0
32 -31 0
-29 31 -32 0
34 33 0
34 5 0
-33 -5 -34 0
-32 -34 -35 0
32 34 -35 0
-32 34 35 0
32 -34 35 0
-4 9 -36 0
4 -9 -36 0
-4 -9 36 0
4 9 36 0
35 -36 -37 0
-35 36 -37 0
35 36 37 0
-35 -36 37 0
1 -12 -38 0
-1 12 -38 0
1 12 38 0
-1 -12 38 0
-39 -37 0
-39 38 0
37 -38 39 0
40 28 0
40 -39 0
-28 39 -40 0
24 -16 -15 25 0
-23 2 -33 5 -35 0
9 -28 -30 24 14 0
25 -24 -29 -9 -11 -19 6 -18 0
6 7 15 36 0
8 17 5 0
-19 -6 -22 0
2 -20 -24 -30 11 9 39 29 0
-3 38 36 7 -29 0
-29 -20 22 -31 0
40 0
